c ren 1 -> 1
c ren 2 -> 2
c ren 3 -> 3
c ren 5 -> 4
c ren 7 -> 5
c ren 8 -> 6
c ren 9 -> 7
c ren 11 -> 8
c ren 14 -> 9
c ren 16 -> 10
c ren 19 -> 11
c ren 20 -> 12
c ren 22 -> 13
c ren 25 -> 14
c ren 27 -> 15
c ren 30 -> 16
c ren 31 -> 17
c ren 33 -> 18
c ren 36 -> 19
c ren 38 -> 20
c ren 41 -> 21
c ren 47 -> 22
c ren 50 -> 23
c ren 52 -> 24
c ren 55 -> 25
c ren 57 -> 26
c ren 60 -> 27
c ren 61 -> 28
c ren 62 -> 29
c ren 66 -> 30
c ren 67 -> 31
c ren 71 -> 32
c ren 72 -> 33
c ren 76 -> 34
c ren 77 -> 35
c ren 78 -> 36
c ren 82 -> 37
c ren 86 -> 38
c ren 87 -> 39
c ren 91 -> 40
c ren 94 -> 41
c ren 96 -> 42
c ren 99 -> 43
c ren 101 -> 44
c ren 104 -> 45
c ren 108 -> 46
c ren 111 -> 47
c ren 113 -> 48
c ren 116 -> 49
c ren 118 -> 50
c ren 121 -> 51
c ren 123 -> 52
c ren 126 -> 53
c ren 128 -> 54
c ren 131 -> 55
c ren 133 -> 56
c ren 136 -> 57
c ren 138 -> 58
c ren 141 -> 59
c ren 145 -> 60
c ren 148 -> 61
c ren 150 -> 62
c ren 153 -> 63
c ren 158 -> 64
c ren 165 -> 65
c ren 169 -> 66
c ren 170 -> 67
c ren 172 -> 68
c ren 175 -> 69
c ren 182 -> 70
c ren 187 -> 71
c ren 191 -> 72
c ren 192 -> 73
c ren 196 -> 74
c ren 199 -> 75
c ren 201 -> 76
c ren 204 -> 77
c ren 208 -> 78
c ren 211 -> 79
c ren 213 -> 80
c ren 216 -> 81
c ren 218 -> 82
c ren 221 -> 83
c ren 225 -> 84
c ren 228 -> 85
c ren 230 -> 86
c ren 233 -> 87
c ren 237 -> 88
c ren 240 -> 89
c ren 242 -> 90
c ren 245 -> 91
c ren 249 -> 92
c ren 252 -> 93
c ren 253 -> 94
c ren 256 -> 95
c ren 257 -> 96
c ren 259 -> 97
c ren 262 -> 98
c ren 263 -> 99
c ren 266 -> 100
c ren 267 -> 101
c ren 270 -> 102
c ren 271 -> 103
c ren 274 -> 104
c ren 276 -> 105
c ren 279 -> 106
c ren 283 -> 107
c ren 286 -> 108
c ren 288 -> 109
c ren 291 -> 110
c ren 293 -> 111
c ren 296 -> 112
c ren 297 -> 113
c ren 300 -> 114
c ren 304 -> 115
c ren 308 -> 116
c ren 312 -> 117
c ren 316 -> 118
c ren 320 -> 119
c ren 321 -> 120
c ren 325 -> 121
c ren 328 -> 122
c ren 330 -> 123
c ren 333 -> 124
c ren 335 -> 125
c ren 338 -> 126
c ren 342 -> 127
c ren 345 -> 128
c ren 347 -> 129
c ren 350 -> 130
c ren 352 -> 131
c ren 355 -> 132
c ren 356 -> 133
c ren 359 -> 134
c ren 360 -> 135
c ren 363 -> 136
c ren 365 -> 137
c ren 368 -> 138
c ren 372 -> 139
c ren 375 -> 140
c ren 377 -> 141
c ren 380 -> 142
c ren 382 -> 143
c ren 385 -> 144
c ren 392 -> 145
c ren 397 -> 146
c ren 398 -> 147
c ren 402 -> 148
c ren 403 -> 149
c ren 407 -> 150
c ren 410 -> 151
c ren 414 -> 152
c ren 417 -> 153
c ren 418 -> 154
c ren 420 -> 155
c ren 423 -> 156
c ren 427 -> 157
c ren 430 -> 158
c ren 432 -> 159
c ren 435 -> 160
c ren 436 -> 161
c ren 437 -> 162
c ren 441 -> 163
c ren 448 -> 164
c ren 451 -> 165
c ren 452 -> 166
c ren 453 -> 167
c ren 456 -> 168
c ren 457 -> 169
c ren 460 -> 170
c ren 462 -> 171
c ren 464 -> 172
c ren 467 -> 173
c ren 469 -> 174
c ren 472 -> 175
c ren 476 -> 176
c ren 479 -> 177
c ren 480 -> 178
c ren 483 -> 179
c ren 484 -> 180
c ren 493 -> 181
c ren 513 -> 182
p cnf 182 792
a 1 2 3 5 6 7 9 11 12 14 16 17 19 21 23 25 27 28 30 32 34 35 37 39 41 43 45 47 49 51 53 55 57 59 61 63 64 65 67 69 70 71 73 75 77 79 81 83 85 87 89 91 93 95 98 100 102 104 106 108 110 112 114 115 116 117 118 120 122 124 126 128 130 132 134 136 138 140 142 144 145 146 149 151 153 156 158 160 163 164 166 168 170 173 175 177 179 0
d 96 2 3 0
d 147 6 28 0
d 154 12 35 0
d 161 17 28 0
d 171 166 168 0
d 181 112 0
d 182 177 179 0
e 4 8 10 13 15 18 20 22 24 26 29 31 33 36 38 40 42 44 46 48 50 52 54 56 58 60 62 66 68 72 74 76 78 80 82 84 86 88 90 92 94 97 99 101 103 105 107 109 111 113 119 121 123 125 127 129 131 133 135 137 139 141 143 148 150 152 155 157 159 162 165 167 169 172 174 176 178 180 0
-1 2 -4 0
-1 -2 -3 4 0
1 -2 -3 -4 0
1 3 4 0
-1 3 -4 0
1 2 4 0
-5 6 -8 0
-5 -6 -7 8 0
7 93 94 0
5 -6 -7 -8 0
6 93 94 0
6 -93 -94 0
-6 -7 -93 94 0
8 38 0
-4 -8 -10 -13 -15 -18 -20 -22 -24 -26 -27 -29 -30 -31 -32 -33 -34 -36 37 -38 0
1 5 -9 -10 0
-1 -5 9 10 0
1 -5 9 -10 0
-1 5 -9 10 0
-1 5 9 -10 0
-1 -5 -9 -10 0
1 5 9 10 0
1 -5 -9 10 0
10 38 0
-4 -8 -10 -13 -15 -18 -20 -22 -24 -26 -27 -29 -30 -31 -32 -33 34 36 -37 -38 0
2 -11 -13 0
-2 -11 -12 13 0
12 98 99 0
-2 11 -12 -13 0
2 98 99 0
2 -98 -99 0
-2 -12 -98 99 0
13 38 0
-4 -8 -10 -13 -15 -18 -20 -22 -24 -26 -27 -29 -30 -31 32 33 -34 -36 -37 -38 0
3 -14 -15 0
-3 -6 -14 15 0
6 100 101 0
-3 -6 14 -15 0
3 100 101 0
3 -100 -101 0
-3 -6 -100 101 0
15 38 0
-4 -8 -10 -13 -15 -18 -20 -22 -24 -26 -27 -29 -30 -31 32 33 34 36 37 -38 0
7 -16 -18 0
-7 -16 -17 18 0
17 102 103 0
-7 16 -17 -18 0
7 102 103 0
7 -102 -103 0
-7 -17 -102 103 0
18 38 0
-4 -8 -10 -13 -15 -18 -20 -22 -24 -26 -27 -29 30 31 -32 -33 -34 -36 37 -38 0
14 16 -19 -20 0
-14 -16 19 20 0
14 -16 19 -20 0
-14 16 -19 20 0
-14 16 19 -20 0
-14 -16 -19 -20 0
14 16 19 20 0
14 -16 -19 20 0
20 38 0
-4 -8 -10 -13 -15 -18 -20 -22 -24 -26 -27 -29 30 31 -32 -33 34 36 -37 -38 0
1 -21 -22 0
5 21 22 0
5 -21 -22 0
-1 -5 -21 22 0
1 21 22 0
-1 -5 21 -22 0
22 38 0
-4 -8 -10 -13 -15 -18 -20 -22 -24 -26 -27 -29 30 31 32 33 -34 -36 -37 -38 0
19 21 -23 -24 0
-19 -21 23 24 0
19 -21 23 -24 0
-19 21 -23 24 0
-19 21 23 -24 0
-19 -21 -23 -24 0
19 21 23 24 0
19 -21 -23 24 0
24 38 0
-4 -8 -10 -13 -15 -18 -20 -22 -24 -26 -27 -29 30 31 32 33 34 36 37 -38 0
11 23 -25 -26 0
-11 -23 25 26 0
11 -23 25 -26 0
-11 23 -25 26 0
-11 23 25 -26 0
-11 -23 -25 -26 0
11 23 25 26 0
11 -23 -25 26 0
26 38 0
-4 -8 -10 -13 -15 -18 -20 -22 -24 -26 27 29 -30 -31 -32 -33 -34 -36 37 -38 0
2 -29 0
28 -29 0
-2 -28 29 0
-4 -8 -10 -13 -15 -18 -20 -22 -24 -26 27 29 -30 -31 32 33 34 36 37 -38 0
-4 -8 -10 -13 -15 -18 -20 -22 -24 -26 27 29 -30 -31 -32 -33 34 36 -37 -38 0
17 -102 -103 0
-4 -8 -10 -13 -15 -18 -20 -22 -24 -26 27 29 30 31 -32 -33 -34 -36 37 -38 0
-4 -8 -10 -13 -15 -18 -20 -22 -24 -26 27 29 -30 -31 32 33 -34 -36 -37 -38 0
-4 -8 -10 -13 -15 -18 -20 -22 -24 -26 27 29 30 31 -32 -33 34 36 -37 -38 0
6 -31 0
12 -31 0
-6 -12 31 0
4 38 0
-4 -8 -10 -13 -15 -18 -20 -22 -24 -26 27 29 30 31 32 33 -34 -36 -37 -38 0
-30 31 38 0
7 -93 -94 0
-4 -8 -10 -13 -15 -18 -20 -22 -24 -26 27 29 30 31 32 33 34 36 37 -38 0
17 -33 0
3 -33 0
-3 -17 33 0
12 -98 -99 0
6 -100 -101 0
-32 33 38 0
35 -36 0
7 -36 0
-7 -35 36 0
27 -29 38 0
32 -33 38 0
30 -31 38 0
-27 29 38 0
-34 36 38 0
32 34 -37 38 0
32 -34 37 38 0
34 -36 38 0
-32 34 37 38 0
-32 -34 -37 38 0
14 19 -39 -40 0
-19 -21 -39 40 0
16 21 39 40 0
16 19 -39 -40 0
-14 -16 -39 40 0
16 21 -39 -40 0
14 19 39 40 0
14 21 39 40 0
-14 -16 39 -40 0
14 21 -39 -40 0
-19 -21 39 -40 0
16 19 39 40 0
40 66 0
-30 38 -40 -41 -42 -44 -46 -48 -50 -52 -53 -54 -56 -58 -60 61 -62 -63 -64 65 -66 0
37 39 -41 -42 0
-37 -39 41 42 0
37 -39 41 -42 0
-37 39 -41 42 0
-37 39 41 -42 0
-37 -39 -41 -42 0
37 39 41 42 0
37 -39 -41 42 0
42 66 0
38 -40 -42 -43 -44 -45 -46 -48 -50 -52 -53 -54 -56 -58 -60 61 -62 -63 -64 65 -66 0
30 41 -43 -44 0
-30 -41 43 44 0
30 -41 43 -44 0
-30 41 -43 44 0
-30 41 43 -44 0
-30 -41 -43 -44 0
30 41 43 44 0
30 -41 -43 44 0
44 66 0
11 -45 -46 0
23 45 46 0
23 -45 -46 0
-11 -23 -45 46 0
11 45 46 0
-11 -23 45 -46 0
46 66 0
38 -40 41 -42 43 -44 -46 -48 -50 -52 -53 -54 -56 -58 -60 61 -62 -63 64 -65 -66 0
43 45 -47 -48 0
-43 -45 47 48 0
43 -45 47 -48 0
-43 45 -47 48 0
-43 45 47 -48 0
-43 -45 -47 -48 0
43 45 47 48 0
43 -45 -47 48 0
48 66 0
30 38 -40 -42 -44 45 -46 -48 -50 -52 -53 -54 -56 -58 -60 61 -62 -63 64 -65 -66 0
27 47 -49 -50 0
-27 -47 49 50 0
27 -47 49 -50 0
-27 47 -49 50 0
-27 47 49 -50 0
-27 -47 -49 -50 0
27 47 49 50 0
27 -47 -49 50 0
50 66 0
38 -40 41 -42 -44 45 -46 -48 -50 -52 -53 -54 -56 -58 -60 61 -62 -63 64 -65 -66 0
6 -51 -52 0
-6 -28 -51 52 0
-6 -28 51 -52 0
28 51 52 0
28 -51 -52 0
6 51 52 0
52 66 0
-30 38 -40 -41 -42 -44 -46 -48 -50 -52 53 -54 -56 -58 -60 -61 -62 -63 -64 65 -66 0
12 -53 -54 0
-12 -17 -53 54 0
17 132 133 0
-12 -17 53 -54 0
12 132 133 0
12 -132 -133 0
-12 -17 -132 133 0
54 66 0
38 -40 -42 -43 -44 -45 -46 -48 -50 -52 53 -54 -56 -58 -60 -61 -62 -63 -64 65 -66 0
3 -55 -56 0
-3 -35 -55 56 0
35 134 135 0
-3 -35 55 -56 0
3 134 135 0
3 -134 -135 0
-3 -35 -134 135 0
56 66 0
55 -57 -58 0
-55 -57 58 0
-55 57 -58 0
55 57 58 0
58 66 0
38 -40 41 -42 43 -44 -46 -48 -50 -52 53 -54 -56 -58 -60 -61 -62 -63 64 -65 -66 0
32 37 -59 -60 0
-37 -39 -59 60 0
34 39 59 60 0
34 37 -59 -60 0
-32 -34 -59 60 0
34 39 -59 -60 0
32 37 59 60 0
32 39 59 60 0
-32 -34 59 -60 0
32 39 -59 -60 0
-37 -39 59 -60 0
60 66 0
30 38 -40 -42 -44 45 -46 -48 -50 -52 53 -54 -56 -58 -60 -61 -62 -63 64 -65 -66 0
57 59 -61 -62 0
-57 -59 61 62 0
57 -59 61 -62 0
-57 59 -61 62 0
-57 59 61 -62 0
-57 -59 -61 -62 0
57 59 61 62 0
57 -59 -61 62 0
62 66 0
38 -40 41 -42 -44 45 -46 -48 -50 -52 53 -54 -56 -58 -60 -61 -62 -63 64 -65 -66 0
38 -40 -42 -43 -44 -45 -46 -48 -50 -52 53 -54 -56 -58 -60 61 -62 63 -64 -65 -66 0
-30 38 -40 -41 -42 -44 -46 -48 -50 -52 -53 -54 -56 -58 -60 -61 -62 63 -64 -65 -66 0
38 -40 -42 -43 -44 -45 -46 -48 -50 -52 -53 -54 -56 -58 -60 -61 -62 63 -64 -65 -66 0
-53 -61 -63 66 0
30 38 -40 -42 -44 45 -46 -48 -50 -52 -53 -54 -56 -58 -60 -61 -62 63 64 65 -66 0
30 38 -40 -42 43 -44 -46 -48 -50 -52 -53 -54 -56 -58 -60 -61 -62 63 64 65 -66 0
38 -40 41 -42 -44 45 -46 -48 -50 -52 -53 -54 -56 -58 -60 -61 -62 63 64 65 -66 0
-38 66 0
30 38 -40 -42 -44 45 -46 -48 -50 -52 53 -54 -56 -58 -60 61 -62 63 64 65 -66 0
30 45 -64 66 0
-53 61 63 66 0
-43 -45 64 66 0
30 43 -64 66 0
41 43 -64 66 0
53 -61 63 66 0
41 45 -64 66 0
-30 38 -40 -41 -42 -44 -46 -48 -50 -52 53 -54 -56 -58 -60 61 -62 63 -64 -65 -66 0
38 -40 41 -42 43 -44 -46 -48 -50 -52 53 -54 -56 -58 -60 61 -62 63 64 65 -66 0
38 -40 41 -42 -44 45 -46 -48 -50 -52 53 -54 -56 -58 -60 61 -62 63 64 65 -66 0
35 -134 -135 0
63 64 -65 66 0
63 -64 65 66 0
-30 -41 64 66 0
-63 64 65 66 0
17 -132 -133 0
-63 -64 -65 66 0
51 65 -67 -68 0
-51 -65 67 68 0
51 -65 67 -68 0
-51 65 -67 68 0
-51 65 67 -68 0
-51 -65 -67 -68 0
51 65 67 68 0
51 -65 -67 68 0
68 72 0
-12 -17 -27 -35 -47 66 -68 -69 -70 -71 -72 0
-17 27 -28 35 66 -68 69 -70 71 -72 0
-12 17 27 -35 66 -68 69 70 -71 -72 0
12 17 27 66 -68 69 70 71 -72 0
12 -17 -27 -47 66 -68 -69 -70 71 -72 0
17 35 47 66 -68 69 70 71 -72 0
17 27 35 66 -68 69 70 71 -72 0
12 17 -27 -47 66 -68 -69 70 71 -72 0
27 -69 72 0
-17 -28 35 47 66 -68 69 -70 71 -72 0
-12 28 -35 66 -68 69 70 -71 -72 0
-12 -17 27 -28 -35 66 -68 69 -70 -71 -72 0
53 61 -63 66 0
-17 -28 70 72 0
-17 -27 35 -47 66 -68 -69 -70 71 -72 0
12 28 66 -68 69 70 71 -72 0
12 -17 27 -28 66 -68 69 -70 71 -72 0
17 -70 72 0
-12 17 -35 47 66 -68 69 70 -71 -72 0
12 -71 72 0
28 35 66 -68 69 70 71 -72 0
12 17 47 66 -68 69 70 71 -72 0
35 -71 72 0
-12 -35 71 72 0
-12 17 -27 -35 -47 66 -68 -69 70 -71 -72 0
-12 -17 -28 -35 47 66 -68 69 -70 -71 -72 0
28 -70 72 0
12 -17 -28 47 66 -68 69 -70 71 -72 0
57 -73 -74 0
-57 -59 -73 74 0
59 73 74 0
59 -73 -74 0
57 73 74 0
17 -27 35 -47 66 -68 -69 70 71 -72 0
-57 -59 73 -74 0
74 119 0
-29 -31 -33 -36 72 -74 -76 -78 -80 -82 -84 -86 -88 -90 -92 -94 -97 -99 -101 -103 -105 -107 -109 -111 -113 -114 -115 -116 -117 118 -119 0
71 73 -75 -76 0
-71 -73 75 76 0
71 -73 75 -76 0
-71 73 -75 76 0
-71 73 75 -76 0
-71 -73 -75 -76 0
71 73 75 76 0
71 -73 -75 76 0
76 119 0
-29 -31 -33 36 72 -74 -76 -78 -80 -82 -84 -86 -88 -90 -92 -94 -97 -99 -101 -103 -105 -107 -109 -111 -113 -114 -115 -116 117 -118 -119 0
53 63 -77 -78 0
-63 -64 -77 78 0
61 64 77 78 0
61 63 -77 -78 0
-53 -61 -77 78 0
61 64 -77 -78 0
53 63 77 78 0
53 64 77 78 0
-27 -47 69 72 0
-53 -61 77 -78 0
53 64 -77 -78 0
-63 -64 77 -78 0
61 63 77 78 0
78 119 0
-29 -31 33 -36 72 -74 -76 -78 -80 -82 -84 -86 -88 -90 -92 -94 -97 -99 -101 -103 -105 -107 -109 -111 -113 -114 -115 116 -117 -118 -119 0
75 77 -79 -80 0
-75 -77 79 80 0
75 -77 79 -80 0
-75 77 -79 80 0
-75 77 79 -80 0
-75 -77 -79 -80 0
75 77 79 80 0
75 -77 -79 80 0
80 119 0
-29 -31 33 36 72 -74 -76 -78 -80 -82 -84 -86 -88 -90 -92 -94 -97 -99 -101 -103 -105 -107 -109 -111 -113 -114 -115 116 117 118 -119 0
70 79 -81 -82 0
-70 -79 81 82 0
70 -79 81 -82 0
-70 79 -81 82 0
-70 79 81 -82 0
-70 -79 -81 -82 0
70 79 81 82 0
70 -79 -81 82 0
82 119 0
-29 31 -33 -36 72 -74 -76 -78 -80 -82 -84 -86 -88 -90 -92 -94 -97 -99 -101 -103 -105 -107 -109 -111 -113 -114 115 -116 -117 118 -119 0
47 -69 72 0
51 67 -83 -84 0
-67 -69 -83 84 0
65 69 83 84 0
65 67 -83 -84 0
-51 -65 -83 84 0
65 69 -83 -84 0
51 67 83 84 0
51 69 83 84 0
-51 -65 83 -84 0
51 69 -83 -84 0
-67 -69 83 -84 0
65 67 83 84 0
84 119 0
-29 31 -33 36 72 -74 -76 -78 -80 -82 -84 -86 -88 -90 -92 -94 -97 -99 -101 -103 -105 -107 -109 -111 -113 -114 115 -116 117 -118 -119 0
28 -85 -86 0
-28 -35 -85 86 0
35 146 -147 148 -150 -152 -155 -157 -159 160 162 163 164 -165 0
-28 -35 85 -86 0
28 146 -147 148 -150 -152 -155 -157 -159 160 162 163 164 -165 0
28 147 148 -150 -152 -155 -157 -159 160 162 -163 164 -165 0
-28 -35 146 -147 148 -150 -152 -155 -157 -159 160 162 163 -164 -165 0
86 119 0
-29 31 33 -36 72 -74 -76 -78 -80 -82 -84 -86 -88 -90 -92 -94 -97 -99 -101 -103 -105 -107 -109 -111 -113 -114 115 116 -117 -118 -119 0
71 75 -87 -88 0
-75 -77 -87 88 0
73 77 87 88 0
73 75 -87 -88 0
-71 -73 -87 88 0
73 77 -87 -88 0
71 77 87 88 0
-71 -73 87 -88 0
71 77 -87 -88 0
-75 -77 87 -88 0
73 75 87 88 0
88 119 0
-29 31 33 36 72 -74 -76 -78 -80 -82 -84 -86 -88 -90 -92 -94 -97 -99 -101 -103 -105 -107 -109 -111 -113 -114 115 116 117 118 -119 0
85 87 -89 -90 0
-85 -87 89 90 0
85 -87 89 -90 0
-85 87 -89 90 0
-85 87 89 -90 0
-85 -87 -89 -90 0
85 87 89 90 0
85 -87 -89 90 0
90 119 0
29 -31 -33 -36 72 -74 -76 -78 -80 -82 -84 -86 -88 -90 -92 -94 -97 -99 -101 -103 -105 -107 -109 -111 -113 114 -115 -116 -117 118 -119 0
70 81 -91 -92 0
-81 -83 -91 92 0
79 83 91 92 0
79 81 -91 -92 0
-70 -79 -91 92 0
79 83 -91 -92 0
70 81 91 92 0
70 83 91 92 0
-70 -79 91 -92 0
70 83 -91 -92 0
-81 -83 91 -92 0
92 119 0
29 -31 -33 36 72 -74 -76 -78 -80 -82 -84 -86 -88 -90 -92 -94 -97 -99 -101 -103 -105 -107 -109 -111 -113 114 -115 -116 117 -118 -119 0
-6 -7 93 -94 0
5 7 8 0
-5 7 -8 0
5 6 8 0
94 119 0
29 -31 33 -36 72 -74 -76 -78 -80 -82 -84 -86 -88 -90 -92 -94 -97 -99 -101 -103 -105 -107 -109 -111 -113 114 -115 116 -117 -118 -119 0
93 -95 96 -97 0
-93 95 -96 97 0
-93 95 96 -97 0
93 -95 -96 97 0
93 95 -96 -97 0
-93 -95 -96 -97 0
93 95 96 97 0
-93 -95 96 97 0
97 119 0
29 -31 33 36 72 -74 -76 -78 -80 -82 -84 -86 -88 -90 -92 -94 -97 -99 -101 -103 -105 -107 -109 -111 -113 114 -115 116 117 118 -119 0
-2 -12 98 -99 0
11 12 13 0
-11 12 -13 0
2 11 13 0
99 119 0
29 31 -33 -36 72 -74 -76 -78 -80 -82 -84 -86 -88 -90 -92 -94 -97 -99 -101 -103 -105 -107 -109 -111 -113 114 115 -116 -117 118 -119 0
-3 -6 100 -101 0
6 14 15 0
6 -14 -15 0
3 14 15 0
101 119 0
29 31 -33 36 72 -74 -76 -78 -80 -82 -84 -86 -88 -90 -92 -94 -97 -99 -101 -103 -105 -107 -109 -111 -113 114 115 -116 117 -118 -119 0
-7 -17 102 -103 0
16 17 18 0
-16 17 -18 0
7 16 18 0
103 119 0
29 31 33 -36 72 -74 -76 -78 -80 -82 -84 -86 -88 -90 -92 -94 -97 -99 -101 -103 -105 -107 -109 -111 -113 114 115 116 -117 -118 -119 0
100 102 -104 -105 0
-100 -102 104 105 0
100 -102 104 -105 0
-100 102 -104 105 0
-100 102 104 -105 0
-100 -102 -104 -105 0
100 102 104 105 0
100 -102 -104 105 0
105 119 0
29 31 33 36 72 -74 -76 -78 -80 -82 -84 -86 -88 -90 -92 -94 -97 -99 -101 -103 -105 -107 -109 -111 -113 114 115 116 117 118 -119 0
93 -106 -107 0
96 -106 -107 0
-93 -96 -106 107 0
93 106 107 0
-93 -96 106 -107 0
96 106 107 0
107 119 0
-72 119 0
104 106 -108 -109 0
-104 -106 108 109 0
104 -106 108 -109 0
-104 106 -108 109 0
-104 106 108 -109 0
-104 -106 -108 -109 0
104 106 108 109 0
104 -106 -108 109 0
109 119 0
98 108 -110 -111 0
-98 -108 110 111 0
98 -108 110 -111 0
-98 108 -110 111 0
-98 108 110 -111 0
-98 -108 -110 -111 0
98 108 110 111 0
98 -108 -110 111 0
111 119 0
-110 -112 113 0
110 112 113 0
110 -112 -113 0
-110 112 -113 0
113 119 0
31 -115 119 0
-66 72 0
33 -116 119 0
-29 114 119 0
-33 116 119 0
-31 115 119 0
29 -114 119 0
36 -117 119 0
116 117 -118 119 0
116 -117 118 119 0
-36 117 119 0
-116 117 118 119 0
-116 -117 -118 119 0
100 104 -120 -121 0
-104 -106 -120 121 0
102 106 120 121 0
102 104 -120 -121 0
-100 -102 -120 121 0
102 106 -120 -121 0
100 104 120 121 0
100 106 120 121 0
-100 -102 120 -121 0
100 106 -120 -121 0
-104 -106 120 -121 0
102 104 120 121 0
121 148 0
-115 119 -121 -122 -123 -125 -127 -129 -131 -133 -135 -137 -139 -141 142 -143 -144 -145 -146 147 -148 0
118 120 -122 -123 0
-118 -120 122 123 0
118 -120 122 -123 0
-118 120 -122 123 0
-118 120 122 -123 0
-118 -120 -122 -123 0
118 120 122 123 0
118 -120 -122 123 0
123 148 0
-115 119 -121 -122 -123 -125 -127 -129 -131 -133 -135 -137 -139 -141 142 -143 -144 -145 146 -147 -148 0
115 122 -124 -125 0
-115 -122 124 125 0
115 -122 124 -125 0
-115 122 -124 125 0
-115 122 124 -125 0
-115 -122 -124 -125 0
115 122 124 125 0
115 -122 -124 125 0
125 148 0
-115 119 -121 -122 -123 -125 -127 -129 -131 -133 -135 -137 -139 -141 -142 -143 -144 145 -146 -147 -148 0
98 -126 -127 0
35 147 148 149 -150 -152 -155 -157 -159 -160 -162 -163 164 -165 0
108 -126 -127 0
-98 -108 -126 127 0
35 145 -146 148 -149 -150 -152 -155 -157 -159 160 162 163 164 -165 0
98 126 127 0
35 145 148 149 -150 -152 -155 -157 -159 160 162 -163 164 -165 0
-98 -108 126 -127 0
35 -146 147 148 -149 -150 -152 -155 -157 -159 160 162 163 164 -165 0
108 126 127 0
127 148 0
-115 119 -121 -122 -123 -125 -127 -129 -131 -133 -135 -137 -139 -141 -142 -143 -144 145 146 147 -148 0
124 126 -128 -129 0
-124 -126 128 129 0
124 -126 128 -129 0
-124 126 -128 129 0
-124 126 128 -129 0
-124 -126 -128 -129 0
124 126 128 129 0
124 -126 -128 129 0
129 148 0
119 -121 -123 -124 -125 -126 -127 -129 -131 -133 -135 -137 -139 -141 142 -143 -144 -145 -146 147 -148 0
114 128 -130 -131 0
-114 -128 130 131 0
114 -128 130 -131 0
-114 128 -130 131 0
-114 128 130 -131 0
-114 -128 -130 -131 0
114 128 130 131 0
114 -128 -130 131 0
131 148 0
119 -121 -123 -124 -125 -126 -127 -129 -131 -133 -135 -137 -139 -141 142 -143 -144 -145 146 -147 -148 0
-12 -17 132 -133 0
17 53 54 0
17 -53 -54 0
12 53 54 0
133 148 0
119 -121 -123 -124 -125 -126 -127 -129 -131 -133 -135 -137 -139 -141 -142 -143 -144 145 -146 -147 -148 0
-3 -35 134 -135 0
35 55 56 0
35 -55 -56 0
3 55 56 0
135 148 0
119 -121 -123 -124 -125 -126 -127 -129 -131 -133 -135 -137 -139 -141 -142 -143 -144 145 146 147 -148 0
134 -136 -137 0
-134 -136 137 0
-134 136 -137 0
134 136 137 0
137 148 0
116 118 -138 -139 0
-118 -120 -138 139 0
117 120 138 139 0
117 118 -138 -139 0
-116 -117 -138 139 0
117 120 -138 -139 0
116 118 138 139 0
116 120 138 139 0
-116 -117 138 -139 0
116 120 -138 -139 0
-118 -120 138 -139 0
139 148 0
115 119 -121 -123 124 -125 -127 -129 -131 -133 -135 -137 -139 -141 -142 -143 144 -145 146 -147 -148 0
136 138 -140 -141 0
-136 -138 140 141 0
136 -138 140 -141 0
-136 138 -140 141 0
-136 138 140 -141 0
-136 -138 -140 -141 0
136 138 140 141 0
136 -138 -140 141 0
141 148 0
132 140 -142 -143 0
-132 -140 142 143 0
132 -140 142 -143 0
-132 140 -142 143 0
-132 140 142 -143 0
-132 -140 -142 -143 0
132 140 142 143 0
132 -140 -142 143 0
143 148 0
115 119 -121 -123 124 -125 -127 -129 -131 -133 -135 -137 -139 -141 142 -143 144 145 146 147 -148 0
119 -121 122 -123 -125 126 -127 -129 -131 -133 -135 -137 -139 -141 -142 -143 144 -145 146 -147 -148 0
115 119 -121 -123 -125 126 -127 -129 -131 -133 -135 -137 -139 -141 -142 -143 144 -145 -146 147 -148 0
119 -121 122 -123 -125 126 -127 -129 -131 -133 -135 -137 -139 -141 142 -143 144 145 146 147 -148 0
119 -121 122 -123 124 -125 -127 -129 -131 -133 -135 -137 -139 -141 -142 -143 144 -145 -146 147 -148 0
122 124 -144 148 0
115 119 -121 -123 -125 126 -127 -129 -131 -133 -135 -137 -139 -141 142 -143 144 145 -146 -147 -148 0
115 124 -144 148 0
119 -121 122 -123 -125 126 -127 -129 -131 -133 -135 -137 -139 -141 -142 -143 144 -145 -146 147 -148 0
115 119 -121 -123 -125 126 -127 -129 -131 -133 -135 -137 -139 -141 142 -143 144 145 146 147 -148 0
-124 -126 144 148 0
-119 148 0
119 -121 122 -123 -125 126 -127 -129 -131 -133 -135 -137 -139 -141 142 -143 144 145 -146 -147 -148 0
142 -144 145 148 0
115 119 -121 -123 -125 126 -127 -129 -131 -133 -135 -137 -139 -141 -142 -143 144 -145 146 -147 -148 0
119 -121 122 -123 124 -125 -127 -129 -131 -133 -135 -137 -139 -141 142 -143 144 145 -146 -147 -148 0
115 126 -144 148 0
-115 -122 144 148 0
-142 144 145 148 0
-142 -144 -145 148 0
142 144 -145 148 0
-145 146 147 148 0
122 126 -144 148 0
145 146 -147 148 0
114 -149 -150 0
35 145 146 148 -150 -152 -155 -157 -159 -160 -162 -163 164 -165 0
128 -149 -150 0
-114 -128 -149 150 0
35 146 147 148 -150 -152 -155 -157 -159 160 162 -163 164 -165 0
114 149 150 0
35 146 147 148 -150 -152 -155 -157 -159 -160 -162 -163 164 -165 0
-114 -128 149 -150 0
35 145 148 149 -150 -152 -155 -157 -159 -160 -162 -163 164 -165 0
128 149 150 0
150 165 0
136 -151 -152 0
-136 -138 -151 152 0
35 145 -146 148 -149 -150 -152 -155 -157 -159 -160 -162 163 164 -165 0
35 146 -147 148 -150 -152 -155 -157 -159 -160 -162 163 164 -165 0
35 147 148 149 -150 -152 -155 -157 -159 160 162 -163 164 -165 0
136 151 152 0
138 151 152 0
138 -151 -152 0
-136 -138 151 -152 0
35 -146 147 148 -149 -150 -152 -155 -157 -159 -160 -162 163 164 -165 0
152 165 0
151 -153 154 -155 0
-151 153 -154 155 0
-151 153 154 -155 0
151 -153 -154 155 0
151 153 -154 -155 0
-151 -153 -154 -155 0
151 153 154 155 0
-151 -153 154 155 0
155 165 0
-28 -35 -146 147 148 -149 -150 -152 -155 -157 -159 -160 -162 163 -164 -165 0
132 142 -156 -157 0
-142 -144 -156 157 0
140 144 156 157 0
140 142 -156 -157 0
-132 -140 -156 157 0
140 144 -156 -157 0
132 142 156 157 0
132 144 156 157 0
-132 -140 156 -157 0
132 144 -156 -157 0
-142 -144 156 -157 0
140 142 156 157 0
157 165 0
28 146 -147 148 -150 -152 -155 -157 -159 -160 -162 163 164 -165 0
153 156 -158 -159 0
-153 -156 158 159 0
153 -156 158 -159 0
-153 156 -158 159 0
-153 156 158 -159 0
-153 -156 -158 -159 0
153 156 158 159 0
153 -156 -158 159 0
159 165 0
-28 -35 146 -147 148 -150 -152 -155 -157 -159 -160 -162 163 -164 -165 0
158 -161 162 0
-158 161 162 0
-158 -161 -162 0
158 161 -162 0
28 146 147 148 -150 -152 -155 -157 -159 -160 -162 -163 164 -165 0
28 145 146 148 -150 -152 -155 -157 -159 -160 -162 -163 164 -165 0
-28 -35 146 147 148 -150 -152 -155 -157 -159 -160 -162 -163 -164 -165 0
-28 -35 145 146 148 -150 -152 -155 -157 -159 -160 -162 -163 -164 -165 0
28 147 148 149 -150 -152 -155 -157 -159 -160 -162 -163 164 -165 0
28 145 -146 148 -149 -150 -152 -155 -157 -159 160 162 163 164 -165 0
-28 -35 145 146 148 -150 -152 -155 -157 -159 160 162 -163 -164 -165 0
-28 -35 -146 147 148 -149 -150 -152 -155 -157 -159 160 162 163 -164 -165 0
28 145 148 149 -150 -152 -155 -157 -159 -160 -162 -163 164 -165 0
35 -85 -86 0
145 -146 147 148 0
-28 -35 147 148 149 -150 -152 -155 -157 -159 -160 -162 -163 -164 -165 0
35 85 86 0
28 145 148 149 -150 -152 -155 -157 -159 160 162 -163 164 -165 0
28 85 86 0
-28 -35 145 148 149 -150 -152 -155 -157 -159 160 162 -163 -164 -165 0
-154 -166 167 0
154 166 167 0
28 145 -146 148 -149 -150 -152 -155 -157 -159 -160 -162 163 164 -165 0
-89 -91 165 -167 -169 170 -172 -174 -176 -178 -180 182 0
-151 -168 169 0
151 168 169 0
85 91 165 -167 -169 -172 -174 -176 -178 -180 -182 0
-153 -156 -170 172 0
153 170 171 172 0
156 170 171 172 0
-170 -171 172 0
28 -146 147 148 -149 -150 -152 -155 -157 -159 160 162 164 -165 0
87 91 165 -167 -169 -172 -174 -176 -178 -180 -182 0
-28 -35 145 -146 148 -149 -150 -152 -155 -157 -159 -160 -162 163 -164 -165 0
-164 -170 173 174 0
-164 170 -173 174 0
164 170 173 174 0
164 -170 -173 174 0
-148 165 0
85 89 165 -167 -169 -172 -174 -176 -178 -180 -182 0
-160 -163 -175 176 0
161 163 175 176 0
-158 -161 -175 176 0
158 160 175 176 0
158 163 175 176 0
160 161 175 176 0
87 89 165 -167 -169 -172 -174 -176 -178 -180 -182 0
-173 -177 178 0
173 177 178 0
-175 -179 180 0
175 179 180 0
-28 -35 145 148 149 -150 -152 -155 -157 -159 -160 -162 -163 -164 -165 0
28 -146 147 148 -149 -150 -152 -155 -157 -159 -160 -162 163 164 -165 0
-28 -35 145 -146 148 -149 -150 -152 -155 -157 -159 160 162 163 -164 -165 0
-28 -35 147 148 149 -150 -152 -155 -157 -159 160 162 -163 -164 -165 0
-9 95 165 -167 -169 -172 -174 -176 -178 -180 0
9 -95 165 -167 -169 -172 -174 -176 -178 -180 0
-25 165 -167 -169 -172 -174 -176 -178 -180 181 0
-67 69 -146 -149 165 -167 -169 -172 -174 -176 -178 -180 0
67 -69 -146 -149 165 -167 -169 -172 -174 -176 -178 -180 0
-49 130 165 -167 -169 -172 -174 -176 -178 -180 0
-67 69 146 149 165 -167 -169 -172 -174 -176 -178 -180 0
49 -130 165 -167 -169 -172 -174 -176 -178 -180 0
25 165 -167 -169 -172 -174 -176 -178 -180 -181 0
-81 83 -160 -163 165 -167 -169 -172 -174 -176 -178 -180 0
67 69 -146 149 165 -167 -169 -172 -174 -176 -178 -180 0
-67 -69 -146 149 165 -167 -169 -172 -174 -176 -178 -180 0
81 -83 -160 -163 165 -167 -169 -172 -174 -176 -178 -180 0
67 -69 146 149 165 -167 -169 -172 -174 -176 -178 -180 0
-81 83 160 163 165 -167 -169 -172 -174 -176 -178 -180 0
-67 -69 146 -149 165 -167 -169 -172 -174 -176 -178 -180 0
67 69 146 -149 165 -167 -169 -172 -174 -176 -178 -180 0
-89 91 165 -167 -169 -172 -173 -174 -175 -176 -178 -180 0
81 83 -160 163 165 -167 -169 -172 -174 -176 -178 -180 0
-81 -83 -160 163 165 -167 -169 -172 -174 -176 -178 -180 0
89 -91 165 -167 -169 -172 -173 -174 -175 -176 -178 -180 0
81 -83 160 163 165 -167 -169 -172 -174 -176 -178 -180 0
-89 91 165 -167 -169 -172 173 -174 175 -176 -178 -180 0
-81 -83 160 -163 165 -167 -169 -172 -174 -176 -178 -180 0
81 83 160 -163 165 -167 -169 -172 -174 -176 -178 -180 0
-89 -91 165 -167 -169 -172 173 -174 -175 -176 -178 -180 0
-89 -91 164 165 -167 -169 -172 -174 -176 -178 -180 182 0
-85 -87 164 165 -167 -169 -172 -174 -176 -178 -180 182 0
89 91 165 -167 -169 -172 173 -174 -175 -176 -178 -180 0
-89 -91 165 -167 -169 -172 -173 -174 175 -176 -178 -180 0
85 91 -164 165 -167 -169 -170 -172 -174 -176 -178 -180 0
87 91 -164 165 -167 -169 -170 -172 -174 -176 -178 -180 0
89 91 165 -167 -169 -172 -173 -174 175 -176 -178 -180 0
89 -91 165 -167 -169 -172 173 -174 175 -176 -178 -180 0
85 89 -164 165 -167 -169 -170 -172 -174 -176 -178 -180 0
-85 -87 165 -167 -169 170 -172 -174 -176 -178 -180 182 0
87 89 -164 165 -167 -169 -170 -172 -174 -176 -178 -180 0
